c Sudoku solution
p cnf 729 0
119 0
221 0
236 0
252 0
275 0
313 0
327 0
361 0
376 0
394 0
442 0
463 0
528 0
557 0
616 0
714 0
218 0
781 0
849 0
851 0
888 0
926 0
948 0
738 0
345 0
332 0
389 0
269 0
358 0
244 0
641 0
546 0
668 0
486 0
973 0
995 0
954 0
874 0
939 0
911 0
564 0
684 0
585 0
512 0
297 0
283 0
182 0
987 0
962 0
571 0
431 0
533 0
424 0
629 0
599 0
693 0
672 0
477 0
498 0
415 0
637 0
459 0
655 0
817 0
125 0
134 0
835 0
823 0
722 0
779 0
796 0
892 0
866 0
753 0
747 0
765 0
143 0
156 0
167 0
178 0
191 0
